
%FILE DATA:	Soccer Computational Problem for MiniZinc Models	%
%AUTHOR:	Jack Wall	%
%CONTACT:  	116397063@umail.ucc.ie			%
%LAST UPDATE:	03/03/2020, 16:09:05						%
%DESCRIPTION: 	45 games played with 27 games left				%


n=9; %number of teams

%Games to play
games=[|1,9|4,2|8,2|1,2|5,4|8,7|6,3|5,7|1,8|8,9|6,8|4,5|7,6|2,3|6,9|8,3|3,8|7,8|4,1|1,5|3,6|5,6|6,4|3,4|2,6|3,5|5,8|];

%Initial points
iPoints=[4,16,19,10,9,15,17,7,30];

%POSITION CONSTRAINTS
% [|teamID, operator, position|...]
% operators index:
%  1 for =  operator
%  2 for >  operator
%  3 for >= operator
%  4 for <  operator
%  5 for <= operator
positionConstraints=[|9,3,1|6,3,2|];